p edge 70 251
v 1 4
v 2 4
v 3 1
v 4 4
v 5 5
v 6 5
v 7 4
v 8 3
v 9 3
v 10 2
v 11 2
v 12 4
v 13 4
v 14 4
v 15 4
v 16 1
v 17 4
v 18 3
v 19 3
v 20 4
v 21 5
v 22 4
v 23 3
v 24 4
v 25 1
v 26 5
v 27 2
v 28 2
v 29 2
v 30 3
v 31 2
v 32 5
v 33 1
v 34 2
v 35 4
v 36 1
v 37 1
v 38 2
v 39 4
v 40 4
v 41 3
v 42 5
v 43 3
v 44 1
v 45 4
v 46 1
v 47 1
v 48 2
v 49 4
v 50 4
v 51 1
v 52 4
v 53 2
v 54 4
v 55 3
v 56 3
v 57 4
v 58 5
v 59 4
v 60 5
v 61 2
v 62 1
v 63 5
v 64 3
v 65 2
v 66 3
v 67 3
v 68 3
v 69 5
v 70 1
e 1 13
e 1 14
e 1 21
e 1 26
e 1 36
e 1 56
e 2 6
e 2 10
e 2 14
e 2 15
e 2 18
e 2 43
e 2 47
e 2 54
e 2 65
e 2 66
e 2 67
e 3 5
e 3 20
e 3 23
e 3 50
e 3 62
e 4 7
e 4 9
e 4 21
e 4 22
e 4 43
e 4 45
e 4 61
e 4 63
e 5 8
e 5 9
e 5 16
e 5 36
e 5 54
e 5 55
e 5 57
e 5 59
e 6 34
e 6 43
e 6 47
e 6 51
e 6 53
e 6 68
e 7 41
e 7 50
e 7 51
e 7 56
e 7 65
e 8 25
e 8 29
e 8 38
e 8 45
e 8 47
e 8 53
e 9 10
e 9 17
e 9 18
e 9 26
e 9 37
e 9 45
e 9 63
e 10 29
e 10 32
e 10 33
e 10 35
e 10 49
e 10 54
e 10 58
e 10 60
e 10 67
e 11 15
e 11 24
e 11 25
e 11 41
e 11 52
e 11 59
e 11 64
e 12 23
e 12 35
e 12 46
e 12 63
e 12 68
e 13 18
e 13 21
e 13 23
e 13 33
e 13 34
e 13 63
e 14 28
e 14 37
e 14 49
e 14 57
e 14 66
e 15 20
e 15 55
e 16 19
e 16 21
e 16 38
e 16 42
e 17 32
e 17 34
e 17 39
e 17 41
e 17 42
e 17 53
e 17 67
e 17 68
e 18 36
e 18 43
e 18 52
e 18 57
e 18 58
e 18 62
e 18 69
e 19 28
e 19 56
e 19 60
e 20 22
e 20 24
e 20 36
e 20 40
e 20 55
e 20 66
e 21 41
e 21 45
e 21 46
e 21 54
e 21 59
e 21 62
e 21 63
e 21 66
e 22 24
e 22 25
e 22 26
e 22 39
e 22 53
e 22 65
e 23 38
e 23 48
e 23 50
e 23 52
e 23 63
e 23 67
e 23 70
e 24 42
e 24 57
e 25 59
e 26 32
e 26 33
e 26 34
e 26 43
e 26 53
e 26 64
e 27 32
e 27 35
e 27 37
e 27 42
e 27 48
e 27 59
e 27 66
e 28 38
e 28 58
e 29 39
e 30 33
e 30 48
e 30 50
e 30 55
e 30 61
e 31 46
e 31 48
e 31 60
e 31 66
e 32 53
e 32 67
e 33 35
e 33 36
e 33 40
e 33 46
e 33 56
e 33 67
e 33 68
e 34 35
e 34 44
e 34 47
e 34 48
e 34 56
e 34 57
e 35 39
e 35 43
e 35 51
e 35 52
e 36 49
e 36 61
e 36 67
e 37 49
e 37 58
e 37 62
e 38 46
e 38 48
e 38 66
e 38 68
e 39 57
e 40 42
e 40 44
e 40 50
e 40 53
e 40 59
e 40 70
e 41 56
e 41 61
e 42 52
e 42 59
e 42 61
e 42 64
e 43 59
e 43 66
e 44 49
e 44 57
e 44 64
e 44 66
e 44 69
e 45 50
e 46 49
e 46 50
e 47 54
e 47 63
e 48 50
e 48 52
e 48 68
e 49 56
e 50 62
e 50 67
e 51 54
e 51 55
e 51 61
e 51 65
e 52 64
e 53 63
e 53 64
e 54 55
e 57 58
e 58 59
e 58 69
e 59 69
e 61 65
e 61 68
e 62 69
e 63 68
e 65 68
e 66 69
